proyfinal/src/viki/013/andrea/andrea-localstore/experimentInOfficeAgust.take6/worker_6/361ff28f-88c0-4ee2-920d-d64706c3dbe5.als.cnf.out
Reading from standard input... Use '--help' for help.
============================[ Problem Statistics ]=============================
|                                                                             |
|  Number of variables:         87638                                         |
|  Number of clauses:          161767                                         |
|  Parse time:                   0.04 s                                       |
|                                                                             |
============================[ Search Statistics ]==============================
| Conflicts |          ORIGINAL         |          LEARNT          | Progress |
|           |    Vars  Clauses Literals |    Limit  Clauses Lit/Cl |          |
===============================================================================
|       100 |   61996   103756   259307 |    38043      100      9 | 29.259 % |
|       250 |   61996   103756   259307 |    41848      250     53 | 29.259 % |
|       475 |   61996   103756   259307 |    46033      475     83 | 29.259 % |
|       812 |   61996   103756   259307 |    50636      812     65 | 29.259 % |
|      1318 |   61996   103756   259307 |    55700     1318     75 | 29.259 % |
|      2077 |   61996   103756   259307 |    61270     2077     75 | 29.259 % |
|      3216 |   61996   103756   259307 |    67397     3216     77 | 29.259 % |
===============================================================================
restarts              : 21
conflicts             : 3911           (6442 /sec)
decisions             : 12939          (0.00 % random) (21311 /sec)
propagations          : 6899188        (11363160 /sec)
conflict literals     : 311459         (54.40 % deleted)
Memory used           : 23.73 MB
CPU time              : 0.607154 s

UNSATISFIABLE
